NAME: Taillard-75C
BEST_KNOWN: 1291.01
COMMENT: 1291.010000
DIMENSION: 76
CAPACITY: 1122
EDGE_WEIGHT_FORMAT: FUNCTION
EDGE_WEIGHT_TYPE: EXACT_2D
NODE_COORD_SECTION
1 0.00000 0.00000
2 -7.00000 9.00000
3 -7.00000 8.00000
4 -15.00000 16.00000
5 -2.00000 13.00000
6 0.00000 3.00000
7 -9.00000 6.00000
8 2.00000 5.00000
9 -13.00000 9.00000
10 -15.00000 10.00000
11 -14.00000 2.00000
12 1.00000 0.00000
13 -40.00000 24.00000
14 -54.00000 -15.00000
15 -43.00000 10.00000
16 -73.00000 -2.00000
17 -76.00000 4.00000
18 -45.00000 31.00000
19 -29.00000 36.00000
20 -78.00000 11.00000
21 -31.00000 25.00000
22 -67.00000 17.00000
23 -31.00000 4.00000
24 -51.00000 10.00000
25 -30.00000 -9.00000
26 -51.00000 24.00000
27 -80.00000 -10.00000
28 -34.00000 4.00000
29 -45.00000 25.00000
30 73.00000 32.00000
31 78.00000 59.00000
32 58.00000 53.00000
33 57.00000 55.00000
34 20.00000 85.00000
35 -12.00000 81.00000
36 -8.00000 86.00000
37 12.00000 33.00000
38 19.00000 86.00000
39 -11.00000 44.00000
40 -2.00000 67.00000
41 25.00000 76.00000
42 -29.00000 44.00000
43 4.00000 80.00000
44 -2.00000 84.00000
45 -8.00000 54.00000
46 -16.00000 34.00000
47 -14.00000 80.00000
48 -17.00000 32.00000
49 19.00000 39.00000
50 -20.00000 82.00000
51 17.00000 42.00000
52 -4.00000 5.00000
53 -20.00000 25.00000
54 -12.00000 14.00000
55 -11.00000 11.00000
56 -12.00000 4.00000
57 -1.00000 21.00000
58 -1.00000 1.00000
59 -9.00000 21.00000
60 9.00000 3.00000
61 5.00000 14.00000
62 -9.00000 27.00000
63 -20.00000 11.00000
64 0.00000 30.00000
65 -12.00000 15.00000
66 -3.00000 17.00000
67 -58.00000 -60.00000
68 -71.00000 -58.00000
69 -32.00000 -34.00000
70 -59.00000 -37.00000
71 -48.00000 -19.00000
72 -71.00000 -49.00000
73 22.00000 -4.00000
74 13.00000 -10.00000
75 22.00000 -17.00000
76 13.00000 12.00000
DEMAND_SECTION
1 0
2 94
3 12
4 17
5 619
6 61
7 3
8 4
9 13
10 44
11 12
12 35
13 114
14 29
15 76
16 106
17 157
18 43
19 4
20 38
21 212
22 42
23 10
24 19
25 856
26 13
27 67
28 144
29 310
30 85
31 1061
32 344
33 22
34 15
35 219
36 44
37 370
38 74
39 82
40 3
41 39
42 54
43 22
44 171
45 65
46 405
47 19
48 7
49 586
50 15
51 149
52 141
53 9
54 261
55 4
56 5
57 21
58 25
59 86
60 86
61 124
62 123
63 11
64 41
65 279
66 149
67 9
68 65
69 155
70 6
71 83
72 11
73 735
74 4
75 56
76 26
DEPOT_SECTION
1
-1
EOF
